&control
           verbosity = 'high'
          pseudo_dir = '../pseudos'
         calculation = 'scf'
              prefix = 'ecut_40-k_4'
/&end
&system
         occupations = 'fixed'
               ibrav = 2
           celldm(1) = 10.677
                ntyp = 2
                 nat = 2
             ecutwfc = 40
/&end
&electrons
            conv_thr = 1e-08
/&end
ATOMIC_SPECIES
  Ga    69.72     Ga_hamlu.fhi.UPF
  As    74.92     As_hamlu.fhi.UPF
ATOMIC_POSITIONS { crystal }
 Ga   0.0000000000   0.0000000000   0.0000000000
 As   0.2500000000   0.2500000000   0.2500000000
K_POINTS { automatic }
  4  4  4  0  0  0
