&control
           verbosity = 'high'
         calculation = 'scf'
          pseudo_dir = '../pseudos'
              prefix = 'kpoints_12'
/&end
&system
         occupations = 'smearing'
            smearing = 'fermi-dirac'
             degauss = 0.0036749326
               ibrav = 0
                ntyp = 1
                 nat = 2
             ecutwfc = 100
/&end
&electrons
            conv_thr = 1e-08
/&end
ATOMIC_SPECIES
   C   12.011   C_pbe-20082014.UPF
ATOMIC_POSITIONS { angstrom }
  C   0.0000000000   0.0000000000   0.0000000000
  C   0.7124750000   1.2340428991   0.0000000000
K_POINTS { automatic }
 12 12  1  0  0  0
CELL_PARAMETERS angstrom
  2.1374250000   1.2340428991   0.0000000000 
  2.1374250000  -1.2340428991   0.0000000000 
  0.0000000000   0.0000000000  15.0000000000 
