&control
           verbosity = 'high'
         calculation = 'nscf'
          pseudo_dir = '../pseudos'
              prefix = 'ecut:100,k:9'
/&end
&system
         occupations = 'smearing'
            smearing = 'fermi-dirac'
             degauss = 0.0036749326
               ibrav = 0
                ntyp = 1
                 nat = 2
             ecutwfc = 100
                nbnd = 8
/&end
&electrons
            conv_thr = 1e-08
/&end
ATOMIC_SPECIES
   C   12.011   C_pbe-20082014.UPF
ATOMIC_POSITIONS { angstrom }
  C   0.0000000000   0.0000000000   0.0000000000
  C   0.0000000000   1.4200000000   0.0000000000
K_POINTS { tpiba_b }
4
  0.00000000   0.00000000   0.00000000  40.00000000 
  0.50000000   0.28867513   0.00000000  40.00000000 
  0.66666667   0.00000000   0.00000000  40.00000000 
  0.00000000   0.00000000   0.00000000   0.00000000 
CELL_PARAMETERS angstrom
  2.4595121467   0.0000000000   0.0000000000 
  1.2297560734   2.1300000000   0.0000000000 
  0.0000000000   0.0000000000  10.0000000000 
