&control
           verbosity = 'high'
          pseudo_dir = '../pseudos'
         calculation = 'scf'
              prefix = 'si_scf'
/&end
&system
    force_symmorphic = .true.
         occupations = 'fixed'
               ibrav = 2
           celldm(1) = 10.3
                 nat = 2
                ntyp = 1
             ecutwfc = 40
/&end
&electrons
            conv_thr = 1e-08
/&end
ATOMIC_SPECIES
  Si   28.086    Si.pbe-mt_fhi.UPF
ATOMIC_POSITIONS { crystal }
 Si   0.1250000000   0.1250000000   0.1250000000
 Si  -0.1250000000  -0.1250000000  -0.1250000000
K_POINTS { automatic }
  4  4  4  0  0  0

